57299 51059
38296 32443
42314 30393
47911 8334
39881 51376
6779 48847
33829 63735
11969 16546
1107 16177
15201 20271
11533 63148
64107 3066
60703 62128
18482 2659
42603 25961
56351 44722
64306 3549
16605 36429
33691 3364
15527 25231
57816 33656
43692 59123
14785 30439
4452 63156
17576 30788
1502 61387
58169 44310
29281 19006
11038 50336
64577 24867
7512 4822
60524 62765
28386 42340
56058 22071
59891 17677
52753 64635
37540 46460
61490 8221
53055 65378
54143 38935
21172 21738
19420 44825
13286 13780
50130 32946
2225 63830
21863 17986
52051 11654
17095 44657
19793 43393
12428 45369
14336 54529
48769 14659
53949 60602
1292 62610
64417 21265
57030 4349
47890 45695
1451 17020
5722 60673
